REM Solution 1  R1  0.180  Rweak  0.060,  Alpha = 0.0763  in P2(1)/c
REM Formula:  C51 N3 O Si2 K
TITL jluebben_km203K_red_0m in P2(1)/c
CELL  1.54178  12.0544  23.2612  17.4224   90.000   97.831   90.000
ZERR   2   0.00070   0.00130   0.00100   0.0000   0.0031   0.0000
LATT  1
SYMM -X, 1/2+Y, 1/2-Z
SFAC C H N O SI K
UNIT 204 316 8 8 8 4
 
TEMP 23.000
 
L.S. 10
BOND
acta
LIST 6
FMAP 2
PLAN 20
 
WGHT    0.087800    0.804000
FVAR       0.36099   0.53061
SI1B  5    0.230980    0.457095    0.346946    11.00000    0.03672    0.04012 =
         0.04634   -0.00099    0.00670   -0.00193
C1B   1    0.226395    0.389627    0.297985    11.00000    0.03534    0.04337 =
         0.04633    0.00211    0.00547   -0.00163
SI1A  5    0.363926    0.530423    0.372066    11.00000    0.03526    0.04135 =
         0.04942    0.00431    0.00191   -0.00210
C1A   1    0.309626    0.591641    0.313553    11.00000    0.03230    0.04353 =
         0.04322   -0.00089    0.00780   -0.00185
C4C   1    0.130362    0.582805    0.721120    11.00000    0.05180    0.05661 =
         0.05592   -0.00341    0.00858   -0.00262
AFIX  23
H4CA  2    0.090132    0.568471    0.761747    11.00000   -1.20000
H4CB  2    0.092331    0.616627    0.698012    11.00000   -1.20000
AFIX   0
C3C   1    0.251476    0.596128    0.752380    11.00000    0.05862    0.06074 =
         0.07625   -0.01488   -0.00888    0.00389
AFIX  23
H3CA  2    0.260442    0.635869    0.768930    11.00000   -1.20000
H3CB  2    0.278834    0.571139    0.795394    11.00000   -1.20000
AFIX   0
C2C   1    0.310052    0.584574    0.683525    11.00000    0.04158    0.05880 =
         0.09894    0.00361    0.00518   -0.00323
AFIX  23
H2CA  2    0.304647    0.617620    0.649262    11.00000   -1.20000
H2CB  2    0.388545    0.576102    0.699711    11.00000   -1.20000
AFIX   0
K1    6    0.360237    0.466224    0.556772    11.00000    0.03631    0.05447 =
         0.05024    0.00225    0.00420   -0.00025
C5C   1    0.140324    0.536944    0.660653    11.00000    0.04315    0.07260 =
         0.06212   -0.01380    0.01163   -0.00685
AFIX  23
H5CA  2    0.120050    0.499700    0.679576    11.00000   -1.20000
H5CB  2    0.090543    0.545557    0.613496    11.00000   -1.20000
AFIX   0
N2A   3    0.373275    0.642452    0.314096    11.00000    0.03226    0.03985 =
         0.04925    0.00352    0.00326    0.00018
O1C   4    0.254774    0.536291    0.645534    11.00000    0.03902    0.07570 =
         0.06213   -0.00944    0.00579    0.00228
C3A   1    0.310525    0.693072    0.278948    11.00000    0.03571    0.04170 =
         0.05680    0.00608    0.00222    0.00065
N2B   3    0.163340    0.347640    0.331565    11.00000    0.03452    0.04104 =
         0.04699   -0.00215    0.00612   -0.00139
C4A   1    0.217895    0.663176    0.224470    11.00000    0.03376    0.04503 =
         0.05096    0.00430    0.00444    0.00019
AFIX  23
H4AA  2    0.239917    0.659196    0.173220    11.00000   -1.20000
H4AB  2    0.149353    0.685492    0.220207    11.00000   -1.20000
AFIX   0
C3B   1    0.162630    0.291602    0.289056    11.00000    0.03942    0.04230 =
         0.05139   -0.00539    0.00813   -0.00171
C5A   1    0.199486    0.603083    0.259360    11.00000    0.03196    0.04220 =
         0.04522    0.00187    0.00481    0.00071
C4B   1    0.253176    0.301588    0.235696    11.00000    0.04232    0.04993 =
         0.05361   -0.00365    0.01179    0.00044
AFIX  23
H4BA  2    0.323327    0.284265    0.258206    11.00000   -1.20000
H4BB  2    0.230318    0.284122    0.185473    11.00000   -1.20000
AFIX   0
C6A   1    0.260968    0.729906    0.338999    11.00000    0.04543    0.04754 =
         0.06861   -0.00491   -0.00225    0.00562
AFIX 137
H6AA  2    0.207940    0.756580    0.312864    11.00000   -1.50000
H6AB  2    0.319948    0.750694    0.369688    11.00000   -1.50000
H6AC  2    0.224020    0.705481    0.372003    11.00000   -1.50000
AFIX   0
C5B   1    0.268262    0.366924    0.226552    11.00000    0.03652    0.04565 =
         0.04750   -0.00464    0.00675   -0.00305
C7A   1    0.383046    0.731627    0.234957    11.00000    0.04219    0.04915 =
         0.07595    0.01746   -0.00116   -0.00481
AFIX 137
H7AA  2    0.408525    0.710143    0.193674    11.00000   -1.50000
H7AB  2    0.446426    0.744982    0.269759    11.00000   -1.50000
H7AC  2    0.339715    0.763958    0.213824    11.00000   -1.50000
AFIX   0
C6B   1    0.048224    0.280819    0.240135    11.00000    0.04449    0.05022 =
         0.04971   -0.00426    0.00423   -0.00674
AFIX 137
H6BA  2    0.031090    0.312001    0.204387    11.00000   -1.50000
H6BB  2   -0.008594    0.278224    0.273604    11.00000   -1.50000
H6BC  2    0.050849    0.245510    0.211913    11.00000   -1.50000
AFIX   0
C8A   1    0.098498    0.601682    0.305272    11.00000    0.03414    0.04752 =
         0.05096   -0.00064    0.00871    0.00038
AFIX  23
H8AA  2    0.097085    0.564819    0.331150    11.00000   -1.20000
H8AB  2    0.108366    0.631259    0.344862    11.00000   -1.20000
AFIX   0
C7B   1    0.202816    0.240391    0.341827    11.00000    0.04381    0.04709 =
         0.06214   -0.00135    0.00853    0.00309
AFIX  37
H7BA  2    0.221830    0.253633    0.394154    11.00000   -1.50000
H7BB  2    0.267507    0.223352    0.324421    11.00000   -1.50000
H7BC  2    0.144131    0.212306    0.339759    11.00000   -1.50000
AFIX   0
C9A   1   -0.014028    0.611019    0.254386    11.00000    0.03145    0.05349 =
         0.07089    0.00455    0.00616    0.00103
AFIX  23
H9AA  2   -0.074153    0.606880    0.285742    11.00000   -1.20000
H9AB  2   -0.016950    0.649814    0.233792    11.00000   -1.20000
AFIX   0
C8B   1    0.201584    0.391469    0.151952    11.00000    0.04546    0.05351 =
         0.04982   -0.00104    0.00545   -0.00170
AFIX  23
H8BA  2    0.124272    0.379064    0.148811    11.00000   -1.20000
H8BB  2    0.202550    0.433111    0.154910    11.00000   -1.20000
AFIX   0
C10A  1   -0.031213    0.568375    0.187798    11.00000    0.03854    0.06084 =
         0.06806    0.00421   -0.00510   -0.00554
AFIX  23
H10A  2   -0.099650    0.577721    0.154078    11.00000   -1.20000
H10B  2   -0.039135    0.529988    0.208111    11.00000   -1.20000
AFIX   0
C9B   1    0.247401    0.372947    0.078494    11.00000    0.05710    0.06143 =
         0.04891   -0.00317    0.00674   -0.00539
AFIX  23
H9BA  2    0.204616    0.391360    0.034021    11.00000   -1.20000
H9BB  2    0.238961    0.331685    0.072098    11.00000   -1.20000
AFIX   0
C11A  1    0.067332    0.569522    0.141134    11.00000    0.05140    0.05254 =
         0.05187    0.00015   -0.00479   -0.00429
AFIX  23
H11A  2    0.070425    0.606648    0.116161    11.00000   -1.20000
H11B  2    0.056694    0.540305    0.101080    11.00000   -1.20000
AFIX   0
C10B  1    0.371241    0.389004    0.081841    11.00000    0.06214    0.06578 =
         0.05135   -0.00489    0.01742   -0.01170
AFIX  23
H10C  2    0.399624    0.374710    0.035967    11.00000   -1.20000
H10D  2    0.379165    0.430505    0.082882    11.00000   -1.20000
AFIX   0
C12A  1    0.177614    0.558565    0.193920    11.00000    0.04248    0.04693 =
         0.04630    0.00007    0.00566    0.00057
AFIX  23
H12A  2    0.238845    0.559565    0.163134    11.00000   -1.20000
H12B  2    0.175688    0.520476    0.216365    11.00000   -1.20000
AFIX   0
C11B  1    0.438577    0.363249    0.153884    11.00000    0.04358    0.07456 =
         0.05842   -0.00728    0.01451   -0.00688
AFIX  23
H11C  2    0.516242    0.374975    0.156654    11.00000   -1.20000
H11D  2    0.435717    0.321637    0.150565    11.00000   -1.20000
AFIX   0
C13A  1    0.491623    0.643785    0.337391    11.00000    0.03339    0.03913 =
         0.04553    0.00403    0.00366   -0.00167
C12B  1    0.392383    0.382857    0.227188    11.00000    0.03850    0.06469 =
         0.04916   -0.00527    0.00776   -0.00619
AFIX  23
H12C  2    0.400589    0.424223    0.232199    11.00000   -1.20000
H12D  2    0.436167    0.365370    0.271985    11.00000   -1.20000
AFIX   0
C14A  1    0.562859    0.624832    0.283935    11.00000    0.03503    0.04164 =
         0.04708    0.00457    0.00504   -0.00239
C13B  1    0.117493    0.365796    0.397468    11.00000    0.03047    0.04192 =
         0.04581    0.00046    0.00341    0.00115
C15A  1    0.678325    0.630164    0.304642    11.00000    0.03446    0.04901 =
         0.05442    0.00450    0.00704    0.00063
AFIX  43
H15A  2    0.725819    0.617280    0.270471    11.00000   -1.20000
AFIX   0
C14B  1    0.150174    0.424290    0.417582    11.00000    0.03021    0.04224 =
         0.04714    0.00019    0.00232    0.00175
C16A  1    0.724176    0.654014    0.374404    11.00000    0.03440    0.05084 =
         0.06191    0.00516   -0.00206   -0.00388
AFIX  13
H16A  2    0.803780    0.664213    0.383083    11.00000   -1.20000
AFIX   0
C15B  1    0.113048    0.451048    0.481803    11.00000    0.03212    0.04196 =
         0.04964   -0.00320    0.00215    0.00010
AFIX  43
H15B  2    0.134232    0.488745    0.494067    11.00000   -1.20000
AFIX   0
C17A  1    0.654454    0.671078    0.426957    11.00000    0.04306    0.04881 =
         0.05285    0.00047   -0.00392   -0.00455
AFIX  13
H17A  2    0.685875    0.693732    0.472173    11.00000   -1.20000
AFIX   0
C16B  1    0.045888    0.422271    0.526706    11.00000    0.03469    0.05152 =
         0.04891   -0.00541    0.00615   -0.00029
AFIX  43
H16B  2    0.023160    0.439675    0.570025    11.00000   -1.20000
AFIX   0
C18A  1    0.537758    0.665502    0.410226    11.00000    0.04183    0.04296 =
         0.04686    0.00213    0.00207   -0.00121
C17B  1    0.012531    0.366260    0.505783    11.00000    0.03401    0.04999 =
         0.04819    0.00205    0.00615   -0.00302
AFIX  43
H17B  2   -0.033715    0.347359    0.536175    11.00000   -1.20000
AFIX   0
C19A  1    0.519745    0.598708    0.205651    11.00000    0.03688    0.05334 =
         0.04701    0.00023    0.00801   -0.00305
AFIX  13
H19A  2    0.437984    0.602323    0.197738    11.00000   -1.20000
AFIX   0
C18B  1    0.043674    0.336919    0.442783    11.00000    0.03315    0.04371 =
         0.04587    0.00172    0.00127    0.00002
C20A  1    0.564906    0.629895    0.138701    11.00000    0.05337    0.06870 =
         0.04784    0.00222    0.01155   -0.00973
AFIX 137
H20A  2    0.525460    0.616791    0.090272    11.00000   -1.50000
H20B  2    0.643314    0.621835    0.140438    11.00000   -1.50000
H20C  2    0.554189    0.670563    0.143522    11.00000   -1.50000
AFIX   0
C19B  1   -0.009284    0.277168    0.430602    11.00000    0.04198    0.04537 =
         0.04810   -0.00030    0.00729   -0.00543
AFIX  13
H19B  2    0.012701    0.261220    0.382839    11.00000   -1.20000
AFIX   0
C21A  1    0.548451    0.534693    0.203767    11.00000    0.05294    0.05475 =
         0.05838   -0.00548    0.01208   -0.00268
AFIX 137
H21A  2    0.516786    0.518661    0.154881    11.00000   -1.50000
H21B  2    0.518263    0.515221    0.244877    11.00000   -1.50000
H21C  2    0.628314    0.530034    0.210361    11.00000   -1.50000
AFIX   0
C20B  1   -0.138160    0.279690    0.420768    11.00000    0.04370    0.05727 =
         0.06620   -0.00867    0.00928   -0.01137
AFIX 137
H20D  2   -0.164786    0.303538    0.377156    11.00000   -1.50000
H20E  2   -0.161967    0.295495    0.466738    11.00000   -1.50000
H20F  2   -0.168030    0.241611    0.412282    11.00000   -1.50000
AFIX   0
C22A  1    0.467623    0.681295    0.473267    11.00000    0.05011    0.05215 =
         0.04662   -0.00154    0.00641    0.00106
AFIX  13
H22A  2    0.388699    0.674851    0.453044    11.00000   -1.20000
AFIX   0
C21B  1    0.033667    0.236610    0.496862    11.00000    0.06733    0.04891 =
         0.06091    0.00764    0.00612   -0.00165
AFIX 137
H21D  2    0.006384    0.198464    0.484664    11.00000   -1.50000
H21E  2    0.007589    0.249441    0.543629    11.00000   -1.50000
H21F  2    0.114052    0.236405    0.503983    11.00000   -1.50000
AFIX   0
C23A  1    0.481956    0.745016    0.497236    11.00000    0.05960    0.05988 =
         0.05457   -0.00881    0.00282    0.00211
AFIX 137
H23A  2    0.467566    0.768918    0.452056    11.00000   -1.50000
H23B  2    0.557084    0.751365    0.521996    11.00000   -1.50000
H23C  2    0.430133    0.754403    0.532566    11.00000   -1.50000
AFIX   0
C24A  1    0.497347    0.643110    0.544972    11.00000    0.06703    0.06914 =
         0.05140    0.00601    0.01054    0.00689
AFIX 137
H24A  2    0.477056    0.604036    0.532056    11.00000   -1.50000
H24B  2    0.457193    0.656112    0.585654    11.00000   -1.50000
H24C  2    0.576383    0.645301    0.562053    11.00000   -1.50000
AFIX   0
part 1
sadi O1D C2D C5D
rigu C2D C3D C4D C5D
O1D   4    0.334119    0.611409    0.963821    21.00000    0.10348    0.10446 =
         0.08632   -0.00565    0.01041   -0.02239
same C3D C4D C5D
C2D   1    0.226488    0.633432    0.978241    21.00000    0.12815    0.06748 =
         0.09357   -0.00503   -0.01695    0.01482
AFIX  23
H2DA  2    0.209739    0.669826    0.952027    21.00000   -1.20000
H2DB  2    0.224224    0.638501    1.033268    21.00000   -1.20000
AFIX   0
C3D   1    0.146367    0.587334    0.945288    21.00000    0.08496    0.07772 =
         0.05545   -0.00911    0.00124    0.01946
AFIX  23
H3DA  2    0.080328    0.586542    0.971460    21.00000   -1.20000
H3DB  2    0.123504    0.593118    0.890269    21.00000   -1.20000
AFIX   0
C4D   1    0.213289    0.533049    0.960055    21.00000    0.07132    0.06227 =
         0.07068   -0.00295   -0.00291    0.00173
AFIX  23
H4DA  2    0.201951    0.507997    0.915161    21.00000   -1.20000
H4DB  2    0.191877    0.512597    1.004283    21.00000   -1.20000
AFIX   0
C5D   1    0.335330    0.552645    0.976189    21.00000    0.07420    0.09090 =
         0.06609   -0.02377   -0.00486    0.01074
AFIX  23
H5DA  2    0.366515    0.543871    1.029185    21.00000   -1.20000
H5DB  2    0.379989    0.533540    0.941513    21.00000   -1.20000
AFIX   0
part 2
 
sadi O1E C2E C5E
rigu C2E C3E C4E C5E
O1E   4    0.156451    0.548885    0.920864   -21.00000    0.11764    0.10019 =
         0.12912    0.02294   -0.00639   -0.01606
same c3e c4e c5e
C2E   1    0.165959    0.609430    0.943659   -21.00000    0.11715    0.07388 =
         0.10348   -0.01149    0.03911    0.01158
AFIX  23
H2EA  2    0.108940    0.619303    0.975681   -21.00000   -1.20000
H2EB  2    0.156762    0.633958    0.898210   -21.00000   -1.20000
AFIX   0
C3E   1    0.281643    0.617104    0.988716   -21.00000    0.12560    0.07266 =
         0.11274   -0.01474    0.06890   -0.01939
AFIX  23
H3EA  2    0.326669    0.642575    0.961483   -21.00000   -1.20000
H3EB  2    0.277006    0.632849    1.039736   -21.00000   -1.20000
AFIX   0
C4E   1    0.330820    0.557404    0.994708   -21.00000    0.09194    0.07671 =
         0.06538   -0.01022    0.01865   -0.01207
AFIX  23
H4EA  2    0.389912    0.554035    0.962345   -21.00000   -1.20000
H4EB  2    0.362065    0.549111    1.047838   -21.00000   -1.20000
AFIX   0
C5E   1    0.237625    0.516428    0.968004   -21.00000    0.08263    0.06866 =
         0.07940    0.01288   -0.00079    0.00453
AFIX  23
H5EA  2    0.264476    0.485091    0.938746   -21.00000   -1.20000
H5EB  2    0.206503    0.500551    1.011924   -21.00000   -1.20000
 
part 0
 
REM #####
REM #####
REM #####
AFIX   0
HKLF 4
 
REM  jluebben_km203K_red_0m in P2(1)/c
REM R1 =  0.0503 for    8069 Fo > 4sig(Fo)  and  0.0590 for all    9610 data
REM    579 parameters refined using     38 restraints
 
END  
     
WGHT      0.0970      1.0001 

REM Highest difference peak  0.501,  deepest hole -0.366,  1-sigma level  0.056
Q1    1   0.2148  0.2067  0.3029  11.00000  0.05    0.50
Q2    1   0.2842  0.2494  0.3726  11.00000  0.05    0.44
Q3    1   0.3174  0.6053  1.0382  11.00000  0.05    0.41
Q4    1   0.1518  0.2275  0.3835  11.00000  0.05    0.41
Q5    1   0.2403  0.4150  0.3348  11.00000  0.05    0.40
Q6    1   0.3295  0.5609  0.3242  11.00000  0.05    0.37
Q7    1   0.2058  0.6334  0.2429  11.00000  0.05    0.33
Q8    1   0.2088  0.4221  0.2962  11.00000  0.05    0.33
Q9    1   0.3595  0.4349  0.5411  11.00000  0.05    0.30
Q10   1   0.4727  0.7081  0.4827  11.00000  0.05    0.28
Q11   1   0.1612  0.6280  1.0016  11.00000  0.05    0.27
Q12   1   0.2401  0.3756  0.1974  11.00000  0.05    0.26
Q13   1   0.2062  0.4411  0.3966  11.00000  0.05    0.26
Q14   1   0.3387  0.6088  0.3175  11.00000  0.05    0.26
Q15   1   0.2030  0.3712  0.3167  11.00000  0.05    0.26
Q16   1   0.2607  0.3440  0.2240  11.00000  0.05    0.25
Q17   1   0.2444  0.4997  0.3495  11.00000  0.05    0.25
Q18   1   0.6846  0.6735  0.4803  11.00000  0.05    0.25
Q19   1   0.5181  0.6663  0.3722  11.00000  0.05    0.25
Q20   1   0.2304  0.5973  0.2805  11.00000  0.05    0.25
